NAME: tsp30-17
TYPE: TSP
DIMENSION: 30
EDGE_WEIGHT_TYPE: EUC_2D
NODE_COORD_SECTION
0 67 67
1 40 83
2 48 6
3 45 75
4 73 75
5 64 36
6 91 29
7 9 97
8 65 85
9 90 5
10 51 56
11 20 59
12 76 32
13 7 7
14 58 78
15 19 72
16 37 29
17 30 28
18 6 93
19 17 79
20 58 30
21 46 92
22 40 87
23 48 48
24 36 25
25 66 44
26 14 6
27 85 61
28 19 11
29 21 30
EOF